num_offers = 25;
num_halls = 10;
start=[21,27,29,83,8,53,9,19,29,13,83,1,19,35,69,32,23,47,60,72,45,69,46,43,14];
end=[71,81,78,88,30,93,29,52,79,78,90,69,77,83,91,55,76,50,82,79,78,94,66,69,63];
price=[3744,2631,2570,251,808,3037,424,1573,1664,812,316,2081,2852,2042,1745,1676,1494,137,393,742,1141,2243,1681,377,1339];
requirement=[571,871,533,961,357,222,877,711,207,414,679,324,676,515,545,673,223,667,669,465,250,254,465,545,604];
capacity=[634,883,323,242,875,487,453,729,794,985];
